Problem:    Forno
Rows:       18
Columns:    5
Non-zeros:  38
Status:     OPTIMAL
Objective:  guadagno = 57.875 (MAXimum)

   No.   Row name   St   Activity     Lower bound   Upper bound    Marginal
------ ------------ -- ------------- ------------- ------------- -------------
     1 prodMin[1]   NL             5             5                   -0.714286 
     2 prodMin[2]   B        5.83333             2               
     3 prodMin[3]   NL             3             3                    -5.23214 
     4 prodMin[4]   B        2.91667             2               
     5 a[1,2]       B       -6.66667                          -0 
     6 a[1,3]       B             -1                          -0 
     7 a[1,4]       B      -0.833333                          -0 
     8 a[2,1]       B       -4.16667                          -0 
     9 a[2,3]       B      -0.166667                          -0 
    10 a[2,4]       NU             0                          -0       2.07143 
    11 a[3,1]       B             -7                          -0 
    12 a[3,2]       B       -8.66667                          -0 
    13 a[3,4]       B       -2.83333                          -0 
    14 a[4,1]       B       -7.08333                          -0 
    15 a[4,2]       B          -8.75                          -0 
    16 a[4,3]       B       -3.08333                          -0 
    17 limiti       NU            24                          24       3.21429 
    18 guadagno     B         57.875                             

   No. Column name  St   Activity     Lower bound   Upper bound    Marginal
------ ------------ -- ------------- ------------- ------------- -------------
     1 x[1]         B              5             0               
     2 x[2]         B        5.83333             0               
     3 x[3]         B              3             0               
     4 x[4]         B        2.91667             0               
     5 h            NL             0             0                    -8.78571 

Karush-Kuhn-Tucker optimality conditions:

KKT.PE: max.abs.err = 0.00e+000 on row 0
        max.rel.err = 0.00e+000 on row 0
        High quality

KKT.PB: max.abs.err = 0.00e+000 on row 0
        max.rel.err = 0.00e+000 on row 0
        High quality

KKT.DE: max.abs.err = 8.88e-016 on column 2
        max.rel.err = 9.87e-017 on column 2
        High quality

KKT.DB: max.abs.err = 0.00e+000 on row 0
        max.rel.err = 0.00e+000 on row 0
        High quality

End of output
